instances/knapsack/discrete_knapsack_uncertainty/knapsack_100_8.lp
\ Model knapsack_100_8
\ LP format - for model browsing. Use MPS format to capture full model detail.
\ Signature: 0x98b4e0718ea0846a
Minimize
  - 92 x[0] - 29 x[1] - 98 x[2] - 42 x[3] - 76 x[4] - 11 x[5] - 80 x[6]
   - 14 x[7] - 29 x[8] - 81 x[9] - x[10] - 21 x[11] - 5 x[12] - 96 x[13]
   - 9 x[14] - 14 x[15] - 84 x[16] - 28 x[17] - 77 x[18] - 64 x[19]
   - 16 x[20] - 33 x[21] - 78 x[22] - 10 x[23] - 67 x[24] - 97 x[25]
   - 46 x[26] - 14 x[27] - 100 x[28] - 95 x[29] - 31 x[30] - 38 x[31]
   - 38 x[32] - x[33] - 34 x[34] - 19 x[35] - 75 x[36] - 93 x[37]
   - 13 x[38] - 34 x[39] - 42 x[40] - 64 x[41] - 88 x[42] - x[43]
   - 69 x[44] - 25 x[45] - 39 x[46] - 99 x[47] - 67 x[48] - 100 x[49]
   - 17 x[50] - 41 x[51] - 61 x[52] - 67 x[53] - 66 x[54] - 32 x[55]
   - 77 x[56] - 82 x[57] - 6 x[58] - 73 x[59] - 98 x[60] - 56 x[61]
   - 92 x[62] - 4 x[63] - 5 x[64] - 39 x[65] - 55 x[66] - 96 x[67]
   - 27 x[68] - 68 x[69] - 51 x[70] - 69 x[71] - 23 x[72] - 88 x[73]
   - 53 x[74] - 64 x[75] - 4 x[76] - 63 x[77] - 54 x[78] - 94 x[79]
   - 5 x[80] - 80 x[81] - 68 x[82] - 48 x[83] - 83 x[84] - 3 x[85]
   - 24 x[86] - 9 x[87] - 82 x[88] - 65 x[89] - 52 x[90] - 28 x[91]
   - 76 x[92] - 43 x[93] - 34 x[94] - 9 x[95] - 31 x[96] - 82 x[97]
   - 35 x[98] - 27 x[99]
Subject To
 primal_upper: 42 x[0] + 22 x[1] + 52 x[2] + 69 x[3] + 30 x[4] + 80 x[5]
   + 87 x[6] + 86 x[7] + 7 x[8] + 68 x[9] + 98 x[10] + 13 x[11] + 18 x[12]
   + 58 x[13] + 51 x[14] + 55 x[15] + 39 x[16] + 70 x[17] + 23 x[18]
   + 36 x[19] + 43 x[20] + 6 x[21] + 58 x[22] + 69 x[23] + 15 x[24]
   + 82 x[25] + 44 x[26] + 54 x[27] + 68 x[28] + 17 x[29] + 72 x[30]
   + 14 x[31] + 66 x[32] + 55 x[33] + 2 x[34] + 95 x[35] + 90 x[36]
   + 87 x[37] + 54 x[38] + 53 x[39] + 33 x[40] + 68 x[41] + 100 x[42]
   + 96 x[43] + 45 x[44] + 65 x[45] + 8 x[46] + 96 x[47] + 77 x[48]
   + 90 x[49] + 41 x[50] + 66 x[51] + 51 x[52] + 62 x[53] + 83 x[54]
   + 6 x[55] + 35 x[56] + 89 x[57] + 38 x[58] + 32 x[59] + 43 x[60]
   + 25 x[61] + 22 x[62] + 85 x[63] + 6 x[64] + 34 x[65] + 35 x[66]
   + 61 x[67] + 46 x[68] + 64 x[69] + 20 x[70] + 100 x[71] + 32 x[72]
   + 49 x[73] + 62 x[74] + 11 x[75] + 97 x[76] + 49 x[77] + 43 x[78]
   + 65 x[79] + 76 x[80] + 12 x[81] + 5 x[82] + 36 x[83] + 12 x[84]
   + 100 x[85] + 70 x[86] + 94 x[87] + 20 x[88] + 25 x[89] + 11 x[90]
   + 7 x[91] + 75 x[92] + 34 x[93] + 54 x[94] + 51 x[95] + 39 x[96]
   + 11 x[97] + 86 x[98] + 22 x[99] + 4.2 r[0] + 2.2 r[1] + 5.2 r[2]
   + 6.9 r[3] + 3 r[4] + 8 r[5] + 8.7 r[6] + 8.6 r[7] + 0.7 r[8] + 6.8 r[9]
   + 9.8 r[10] + 1.3 r[11] + 1.8 r[12] + 5.8 r[13] + 5.1 r[14] + 5.5 r[15]
   + 3.9 r[16] + 7 r[17] + 2.3 r[18] + 3.6 r[19] + 4.3 r[20] + 0.6 r[21]
   + 5.8 r[22] + 6.9 r[23] + 1.5 r[24] + 8.2 r[25] + 4.4 r[26] + 5.4 r[27]
   + 6.8 r[28] + 1.7 r[29] + 7.2 r[30] + 1.4 r[31] + 6.6 r[32] + 5.5 r[33]
   + 0.2 r[34] + 9.5 r[35] + 9 r[36] + 8.7 r[37] + 5.4 r[38] + 5.3 r[39]
   + 3.3 r[40] + 6.8 r[41] + 10 r[42] + 9.6 r[43] + 4.5 r[44] + 6.5 r[45]
   + 0.8 r[46] + 9.6 r[47] + 7.7 r[48] + 9 r[49] + 4.1 r[50] + 6.6 r[51]
   + 5.1 r[52] + 6.2 r[53] + 8.3 r[54] + 0.6 r[55] + 3.5 r[56] + 8.9 r[57]
   + 3.8 r[58] + 3.2 r[59] + 4.3 r[60] + 2.5 r[61] + 2.2 r[62] + 8.5 r[63]
   + 0.6 r[64] + 3.4 r[65] + 3.5 r[66] + 6.1 r[67] + 4.6 r[68] + 6.4 r[69]
   + 2 r[70] + 10 r[71] + 3.2 r[72] + 4.9 r[73] + 6.2 r[74] + 1.1 r[75]
   + 9.7 r[76] + 4.9 r[77] + 4.3 r[78] + 6.5 r[79] + 7.6 r[80] + 1.2 r[81]
   + 0.5 r[82] + 3.6 r[83] + 1.2 r[84] + 10 r[85] + 7 r[86] + 9.4 r[87]
   + 2 r[88] + 2.5 r[89] + 1.1 r[90] + 0.7 r[91] + 7.5 r[92] + 3.4 r[93]
   + 5.4 r[94] + 5.1 r[95] + 3.9 r[96] + 1.1 r[97] + 8.6 r[98] + 2.2 r[99]
   <= 477
 primal_lower: 3.964913901893202 x[0] + 1.737948116318666 x[1]
   + 3.914029172204186 x[2] + 0.8882314938873185 x[3]
   + 1.578436349862479 x[4] + 3.299461095387101 x[5]
   + 3.460549129007842 x[6] + 1.345049031109226 x[7]
   + 4.111319985524311 x[8] + 3.613842303738943 x[9]
   + 1.850012527044545 x[10] + 3.161824471846475 x[11]
   + 2.141682857474664 x[12] + 3.15859382585685 x[13]
   + 0.9254164246130678 x[14] + 4.002190493502519 x[15]
   + 2.649501915530702 x[16] + 0.4882202487323637 x[17]
   + 3.740985413983655 x[18] + 3.542377061420548 x[19]
   + 2.514917282326056 x[20] + 1.521506211640809 x[21]
   + 1.453536339059696 x[22] + 4.268084133662673 x[23]
   + 3.318382195756258 x[24] + 3.375477652875992 x[25]
   + 2.738086229907736 x[26] + 1.518839682722735 x[27]
   + 1.851522482359717 x[28] + 0.0264394610302484 x[29]
   + 2.61426474629473 x[30] + 0.0266076786578566 x[31]
   + 1.437413168217423 x[32] + 2.343257187387833 x[33]
   + 2.141875538288121 x[34] + 1.387468079440487 x[35]
   + 2.457522390475124 x[36] + 4.04005994726872 x[37]
   + 4.483072174566136 x[38] + 0.9766458666365163 x[39]
   + 0.0183030951107309 x[40] + 0.4260037639503925 x[41]
   + 3.507877433028384 x[42] + 3.746160103207614 x[43]
   + 2.413351070657557 x[44] + 4.298283445067169 x[45]
   + 2.968443621456714 x[46] + 3.348762515530647 x[47]
   + 4.482467879504284 x[48] + 4.469045502495201 x[49]
   + 0.6433832947947591 x[50] + 1.677851829703474 x[51]
   + 2.272031130237785 x[52] + 0.3085922859443311 x[53]
   + 1.558289641858365 x[54] + 3.469506868338923 x[55]
   + 1.368608769563886 x[56] + 3.64715029740303 x[57]
   + 2.730707031804484 x[58] + 0.0113061711921231 x[59]
   + 3.451912115214797 x[60] + 4.021860756535935 x[61]
   + 0.0218717163628247 x[62] + 1.082484486943076 x[63]
   + 2.7128103009714 x[64] + 3.497390790435875 x[65]
   + 0.2517139627901456 x[66] + 3.960186982666762 x[67]
   + 0.1511431130218135 x[68] + 4.511280353356118 x[69]
   + 0.9513540153286718 x[70] + 0.5635150670891584 x[71]
   + 3.509630053911694 x[72] + 2.734523351125582 x[73]
   + 0.3835002538608968 x[74] + 0.638376517570893 x[75]
   + 4.014067809139949 x[76] + 2.082711183911971 x[77]
   + 4.318918473581471 x[78] + 1.843434091536928 x[79]
   + 1.642169839383094 x[80] + 3.357799191739839 x[81]
   + 2.407113576582005 x[82] + 4.54108050387905 x[83]
   + 0.0954701711030135 x[84] + 1.977105011726663 x[85]
   + 1.960271081729081 x[86] + 1.015802625422764 x[87]
   + 3.763406415837911 x[88] + 1.782879899245495 x[89]
   + 2.398267081459037 x[90] + 3.838056424671068 x[91]
   + 3.122140613315203 x[92] + 0.5268216123386709 x[93]
   + 1.58449592195068 x[94] + 4.5356940850184 x[95]
   + 2.549708344704308 x[96] + 1.323064876942714 x[97]
   + 3.539478813819344 x[98] + 0.5688183144918169 x[99] + 5 u[0] + 29 u[1]
   + 19 u[2] + 44 u[3] + 61 u[4] + 43 u[5] + 26 u[6] + 73 u[7] + 66 u[8]
   + 59 u[9] + 85 u[10] + 80 u[11] + 61 u[12] + 61 u[13] + 50 u[14]
   + 34 u[15] + 22 u[16] + 89 u[17] + 30 u[18] + 55 u[19] + 70 u[20]
   + 93 u[21] + 17 u[22] + 12 u[23] + 26 u[24] + 97 u[25] + 79 u[26]
   + 33 u[27] + 39 u[28] + 28 u[29] + 31 u[30] + 13 u[31] + 65 u[32]
   + 2 u[33] + 9 u[34] + 54 u[35] + 41 u[36] + 98 u[37] + 33 u[38]
   + 56 u[39] + 56 u[40] + 3 u[41] + 7 u[42] + 43 u[43] + 24 u[44]
   + 4 u[45] + 15 u[46] + 11 u[47] + 64 u[48] + 65 u[49] + 48 u[50]
   + 93 u[51] + 6 u[52] + 73 u[53] + 34 u[54] + 81 u[55] + 50 u[56]
   + 72 u[57] + 57 u[58] + 83 u[59] + 62 u[60] + 12 u[61] + 37 u[62]
   + 24 u[63] + 77 u[64] + 17 u[65] + 62 u[66] + 44 u[67] + 25 u[68]
   + 87 u[69] + 27 u[70] + 51 u[71] + 31 u[72] + 20 u[73] + 61 u[74]
   + 90 u[75] + 68 u[76] + 4 u[77] + 26 u[78] + 88 u[79] + 87 u[80]
   + 11 u[81] + 88 u[82] + 75 u[83] + 3 u[84] + 99 u[85] + 21 u[86]
   + 17 u[87] + 83 u[88] + 84 u[89] + 66 u[90] + 62 u[91] + 14 u[92]
   + 65 u[93] + 85 u[94] + 58 u[95] + 58 u[96] + 98 u[97] + 25 u[98]
   + 73 u[99] <= 73532
 mccormick1[0]: - u[0] + r[0] <= 0
 mccormick1[1]: - u[1] + r[1] <= 0
 mccormick1[2]: - u[2] + r[2] <= 0
 mccormick1[3]: - u[3] + r[3] <= 0
 mccormick1[4]: - u[4] + r[4] <= 0
 mccormick1[5]: - u[5] + r[5] <= 0
 mccormick1[6]: - u[6] + r[6] <= 0
 mccormick1[7]: - u[7] + r[7] <= 0
 mccormick1[8]: - u[8] + r[8] <= 0
 mccormick1[9]: - u[9] + r[9] <= 0
 mccormick1[10]: - u[10] + r[10] <= 0
 mccormick1[11]: - u[11] + r[11] <= 0
 mccormick1[12]: - u[12] + r[12] <= 0
 mccormick1[13]: - u[13] + r[13] <= 0
 mccormick1[14]: - u[14] + r[14] <= 0
 mccormick1[15]: - u[15] + r[15] <= 0
 mccormick1[16]: - u[16] + r[16] <= 0
 mccormick1[17]: - u[17] + r[17] <= 0
 mccormick1[18]: - u[18] + r[18] <= 0
 mccormick1[19]: - u[19] + r[19] <= 0
 mccormick1[20]: - u[20] + r[20] <= 0
 mccormick1[21]: - u[21] + r[21] <= 0
 mccormick1[22]: - u[22] + r[22] <= 0
 mccormick1[23]: - u[23] + r[23] <= 0
 mccormick1[24]: - u[24] + r[24] <= 0
 mccormick1[25]: - u[25] + r[25] <= 0
 mccormick1[26]: - u[26] + r[26] <= 0
 mccormick1[27]: - u[27] + r[27] <= 0
 mccormick1[28]: - u[28] + r[28] <= 0
 mccormick1[29]: - u[29] + r[29] <= 0
 mccormick1[30]: - u[30] + r[30] <= 0
 mccormick1[31]: - u[31] + r[31] <= 0
 mccormick1[32]: - u[32] + r[32] <= 0
 mccormick1[33]: - u[33] + r[33] <= 0
 mccormick1[34]: - u[34] + r[34] <= 0
 mccormick1[35]: - u[35] + r[35] <= 0
 mccormick1[36]: - u[36] + r[36] <= 0
 mccormick1[37]: - u[37] + r[37] <= 0
 mccormick1[38]: - u[38] + r[38] <= 0
 mccormick1[39]: - u[39] + r[39] <= 0
 mccormick1[40]: - u[40] + r[40] <= 0
 mccormick1[41]: - u[41] + r[41] <= 0
 mccormick1[42]: - u[42] + r[42] <= 0
 mccormick1[43]: - u[43] + r[43] <= 0
 mccormick1[44]: - u[44] + r[44] <= 0
 mccormick1[45]: - u[45] + r[45] <= 0
 mccormick1[46]: - u[46] + r[46] <= 0
 mccormick1[47]: - u[47] + r[47] <= 0
 mccormick1[48]: - u[48] + r[48] <= 0
 mccormick1[49]: - u[49] + r[49] <= 0
 mccormick1[50]: - u[50] + r[50] <= 0
 mccormick1[51]: - u[51] + r[51] <= 0
 mccormick1[52]: - u[52] + r[52] <= 0
 mccormick1[53]: - u[53] + r[53] <= 0
 mccormick1[54]: - u[54] + r[54] <= 0
 mccormick1[55]: - u[55] + r[55] <= 0
 mccormick1[56]: - u[56] + r[56] <= 0
 mccormick1[57]: - u[57] + r[57] <= 0
 mccormick1[58]: - u[58] + r[58] <= 0
 mccormick1[59]: - u[59] + r[59] <= 0
 mccormick1[60]: - u[60] + r[60] <= 0
 mccormick1[61]: - u[61] + r[61] <= 0
 mccormick1[62]: - u[62] + r[62] <= 0
 mccormick1[63]: - u[63] + r[63] <= 0
 mccormick1[64]: - u[64] + r[64] <= 0
 mccormick1[65]: - u[65] + r[65] <= 0
 mccormick1[66]: - u[66] + r[66] <= 0
 mccormick1[67]: - u[67] + r[67] <= 0
 mccormick1[68]: - u[68] + r[68] <= 0
 mccormick1[69]: - u[69] + r[69] <= 0
 mccormick1[70]: - u[70] + r[70] <= 0
 mccormick1[71]: - u[71] + r[71] <= 0
 mccormick1[72]: - u[72] + r[72] <= 0
 mccormick1[73]: - u[73] + r[73] <= 0
 mccormick1[74]: - u[74] + r[74] <= 0
 mccormick1[75]: - u[75] + r[75] <= 0
 mccormick1[76]: - u[76] + r[76] <= 0
 mccormick1[77]: - u[77] + r[77] <= 0
 mccormick1[78]: - u[78] + r[78] <= 0
 mccormick1[79]: - u[79] + r[79] <= 0
 mccormick1[80]: - u[80] + r[80] <= 0
 mccormick1[81]: - u[81] + r[81] <= 0
 mccormick1[82]: - u[82] + r[82] <= 0
 mccormick1[83]: - u[83] + r[83] <= 0
 mccormick1[84]: - u[84] + r[84] <= 0
 mccormick1[85]: - u[85] + r[85] <= 0
 mccormick1[86]: - u[86] + r[86] <= 0
 mccormick1[87]: - u[87] + r[87] <= 0
 mccormick1[88]: - u[88] + r[88] <= 0
 mccormick1[89]: - u[89] + r[89] <= 0
 mccormick1[90]: - u[90] + r[90] <= 0
 mccormick1[91]: - u[91] + r[91] <= 0
 mccormick1[92]: - u[92] + r[92] <= 0
 mccormick1[93]: - u[93] + r[93] <= 0
 mccormick1[94]: - u[94] + r[94] <= 0
 mccormick1[95]: - u[95] + r[95] <= 0
 mccormick1[96]: - u[96] + r[96] <= 0
 mccormick1[97]: - u[97] + r[97] <= 0
 mccormick1[98]: - u[98] + r[98] <= 0
 mccormick1[99]: - u[99] + r[99] <= 0
 mccormick2[0]: - x[0] + r[0] <= 0
 mccormick2[1]: - x[1] + r[1] <= 0
 mccormick2[2]: - x[2] + r[2] <= 0
 mccormick2[3]: - x[3] + r[3] <= 0
 mccormick2[4]: - x[4] + r[4] <= 0
 mccormick2[5]: - x[5] + r[5] <= 0
 mccormick2[6]: - x[6] + r[6] <= 0
 mccormick2[7]: - x[7] + r[7] <= 0
 mccormick2[8]: - x[8] + r[8] <= 0
 mccormick2[9]: - x[9] + r[9] <= 0
 mccormick2[10]: - x[10] + r[10] <= 0
 mccormick2[11]: - x[11] + r[11] <= 0
 mccormick2[12]: - x[12] + r[12] <= 0
 mccormick2[13]: - x[13] + r[13] <= 0
 mccormick2[14]: - x[14] + r[14] <= 0
 mccormick2[15]: - x[15] + r[15] <= 0
 mccormick2[16]: - x[16] + r[16] <= 0
 mccormick2[17]: - x[17] + r[17] <= 0
 mccormick2[18]: - x[18] + r[18] <= 0
 mccormick2[19]: - x[19] + r[19] <= 0
 mccormick2[20]: - x[20] + r[20] <= 0
 mccormick2[21]: - x[21] + r[21] <= 0
 mccormick2[22]: - x[22] + r[22] <= 0
 mccormick2[23]: - x[23] + r[23] <= 0
 mccormick2[24]: - x[24] + r[24] <= 0
 mccormick2[25]: - x[25] + r[25] <= 0
 mccormick2[26]: - x[26] + r[26] <= 0
 mccormick2[27]: - x[27] + r[27] <= 0
 mccormick2[28]: - x[28] + r[28] <= 0
 mccormick2[29]: - x[29] + r[29] <= 0
 mccormick2[30]: - x[30] + r[30] <= 0
 mccormick2[31]: - x[31] + r[31] <= 0
 mccormick2[32]: - x[32] + r[32] <= 0
 mccormick2[33]: - x[33] + r[33] <= 0
 mccormick2[34]: - x[34] + r[34] <= 0
 mccormick2[35]: - x[35] + r[35] <= 0
 mccormick2[36]: - x[36] + r[36] <= 0
 mccormick2[37]: - x[37] + r[37] <= 0
 mccormick2[38]: - x[38] + r[38] <= 0
 mccormick2[39]: - x[39] + r[39] <= 0
 mccormick2[40]: - x[40] + r[40] <= 0
 mccormick2[41]: - x[41] + r[41] <= 0
 mccormick2[42]: - x[42] + r[42] <= 0
 mccormick2[43]: - x[43] + r[43] <= 0
 mccormick2[44]: - x[44] + r[44] <= 0
 mccormick2[45]: - x[45] + r[45] <= 0
 mccormick2[46]: - x[46] + r[46] <= 0
 mccormick2[47]: - x[47] + r[47] <= 0
 mccormick2[48]: - x[48] + r[48] <= 0
 mccormick2[49]: - x[49] + r[49] <= 0
 mccormick2[50]: - x[50] + r[50] <= 0
 mccormick2[51]: - x[51] + r[51] <= 0
 mccormick2[52]: - x[52] + r[52] <= 0
 mccormick2[53]: - x[53] + r[53] <= 0
 mccormick2[54]: - x[54] + r[54] <= 0
 mccormick2[55]: - x[55] + r[55] <= 0
 mccormick2[56]: - x[56] + r[56] <= 0
 mccormick2[57]: - x[57] + r[57] <= 0
 mccormick2[58]: - x[58] + r[58] <= 0
 mccormick2[59]: - x[59] + r[59] <= 0
 mccormick2[60]: - x[60] + r[60] <= 0
 mccormick2[61]: - x[61] + r[61] <= 0
 mccormick2[62]: - x[62] + r[62] <= 0
 mccormick2[63]: - x[63] + r[63] <= 0
 mccormick2[64]: - x[64] + r[64] <= 0
 mccormick2[65]: - x[65] + r[65] <= 0
 mccormick2[66]: - x[66] + r[66] <= 0
 mccormick2[67]: - x[67] + r[67] <= 0
 mccormick2[68]: - x[68] + r[68] <= 0
 mccormick2[69]: - x[69] + r[69] <= 0
 mccormick2[70]: - x[70] + r[70] <= 0
 mccormick2[71]: - x[71] + r[71] <= 0
 mccormick2[72]: - x[72] + r[72] <= 0
 mccormick2[73]: - x[73] + r[73] <= 0
 mccormick2[74]: - x[74] + r[74] <= 0
 mccormick2[75]: - x[75] + r[75] <= 0
 mccormick2[76]: - x[76] + r[76] <= 0
 mccormick2[77]: - x[77] + r[77] <= 0
 mccormick2[78]: - x[78] + r[78] <= 0
 mccormick2[79]: - x[79] + r[79] <= 0
 mccormick2[80]: - x[80] + r[80] <= 0
 mccormick2[81]: - x[81] + r[81] <= 0
 mccormick2[82]: - x[82] + r[82] <= 0
 mccormick2[83]: - x[83] + r[83] <= 0
 mccormick2[84]: - x[84] + r[84] <= 0
 mccormick2[85]: - x[85] + r[85] <= 0
 mccormick2[86]: - x[86] + r[86] <= 0
 mccormick2[87]: - x[87] + r[87] <= 0
 mccormick2[88]: - x[88] + r[88] <= 0
 mccormick2[89]: - x[89] + r[89] <= 0
 mccormick2[90]: - x[90] + r[90] <= 0
 mccormick2[91]: - x[91] + r[91] <= 0
 mccormick2[92]: - x[92] + r[92] <= 0
 mccormick2[93]: - x[93] + r[93] <= 0
 mccormick2[94]: - x[94] + r[94] <= 0
 mccormick2[95]: - x[95] + r[95] <= 0
 mccormick2[96]: - x[96] + r[96] <= 0
 mccormick2[97]: - x[97] + r[97] <= 0
 mccormick2[98]: - x[98] + r[98] <= 0
 mccormick2[99]: - x[99] + r[99] <= 0
 mccormick3[0]: x[0] + u[0] - r[0] <= 1
 mccormick3[1]: x[1] + u[1] - r[1] <= 1
 mccormick3[2]: x[2] + u[2] - r[2] <= 1
 mccormick3[3]: x[3] + u[3] - r[3] <= 1
 mccormick3[4]: x[4] + u[4] - r[4] <= 1
 mccormick3[5]: x[5] + u[5] - r[5] <= 1
 mccormick3[6]: x[6] + u[6] - r[6] <= 1
 mccormick3[7]: x[7] + u[7] - r[7] <= 1
 mccormick3[8]: x[8] + u[8] - r[8] <= 1
 mccormick3[9]: x[9] + u[9] - r[9] <= 1
 mccormick3[10]: x[10] + u[10] - r[10] <= 1
 mccormick3[11]: x[11] + u[11] - r[11] <= 1
 mccormick3[12]: x[12] + u[12] - r[12] <= 1
 mccormick3[13]: x[13] + u[13] - r[13] <= 1
 mccormick3[14]: x[14] + u[14] - r[14] <= 1
 mccormick3[15]: x[15] + u[15] - r[15] <= 1
 mccormick3[16]: x[16] + u[16] - r[16] <= 1
 mccormick3[17]: x[17] + u[17] - r[17] <= 1
 mccormick3[18]: x[18] + u[18] - r[18] <= 1
 mccormick3[19]: x[19] + u[19] - r[19] <= 1
 mccormick3[20]: x[20] + u[20] - r[20] <= 1
 mccormick3[21]: x[21] + u[21] - r[21] <= 1
 mccormick3[22]: x[22] + u[22] - r[22] <= 1
 mccormick3[23]: x[23] + u[23] - r[23] <= 1
 mccormick3[24]: x[24] + u[24] - r[24] <= 1
 mccormick3[25]: x[25] + u[25] - r[25] <= 1
 mccormick3[26]: x[26] + u[26] - r[26] <= 1
 mccormick3[27]: x[27] + u[27] - r[27] <= 1
 mccormick3[28]: x[28] + u[28] - r[28] <= 1
 mccormick3[29]: x[29] + u[29] - r[29] <= 1
 mccormick3[30]: x[30] + u[30] - r[30] <= 1
 mccormick3[31]: x[31] + u[31] - r[31] <= 1
 mccormick3[32]: x[32] + u[32] - r[32] <= 1
 mccormick3[33]: x[33] + u[33] - r[33] <= 1
 mccormick3[34]: x[34] + u[34] - r[34] <= 1
 mccormick3[35]: x[35] + u[35] - r[35] <= 1
 mccormick3[36]: x[36] + u[36] - r[36] <= 1
 mccormick3[37]: x[37] + u[37] - r[37] <= 1
 mccormick3[38]: x[38] + u[38] - r[38] <= 1
 mccormick3[39]: x[39] + u[39] - r[39] <= 1
 mccormick3[40]: x[40] + u[40] - r[40] <= 1
 mccormick3[41]: x[41] + u[41] - r[41] <= 1
 mccormick3[42]: x[42] + u[42] - r[42] <= 1
 mccormick3[43]: x[43] + u[43] - r[43] <= 1
 mccormick3[44]: x[44] + u[44] - r[44] <= 1
 mccormick3[45]: x[45] + u[45] - r[45] <= 1
 mccormick3[46]: x[46] + u[46] - r[46] <= 1
 mccormick3[47]: x[47] + u[47] - r[47] <= 1
 mccormick3[48]: x[48] + u[48] - r[48] <= 1
 mccormick3[49]: x[49] + u[49] - r[49] <= 1
 mccormick3[50]: x[50] + u[50] - r[50] <= 1
 mccormick3[51]: x[51] + u[51] - r[51] <= 1
 mccormick3[52]: x[52] + u[52] - r[52] <= 1
 mccormick3[53]: x[53] + u[53] - r[53] <= 1
 mccormick3[54]: x[54] + u[54] - r[54] <= 1
 mccormick3[55]: x[55] + u[55] - r[55] <= 1
 mccormick3[56]: x[56] + u[56] - r[56] <= 1
 mccormick3[57]: x[57] + u[57] - r[57] <= 1
 mccormick3[58]: x[58] + u[58] - r[58] <= 1
 mccormick3[59]: x[59] + u[59] - r[59] <= 1
 mccormick3[60]: x[60] + u[60] - r[60] <= 1
 mccormick3[61]: x[61] + u[61] - r[61] <= 1
 mccormick3[62]: x[62] + u[62] - r[62] <= 1
 mccormick3[63]: x[63] + u[63] - r[63] <= 1
 mccormick3[64]: x[64] + u[64] - r[64] <= 1
 mccormick3[65]: x[65] + u[65] - r[65] <= 1
 mccormick3[66]: x[66] + u[66] - r[66] <= 1
 mccormick3[67]: x[67] + u[67] - r[67] <= 1
 mccormick3[68]: x[68] + u[68] - r[68] <= 1
 mccormick3[69]: x[69] + u[69] - r[69] <= 1
 mccormick3[70]: x[70] + u[70] - r[70] <= 1
 mccormick3[71]: x[71] + u[71] - r[71] <= 1
 mccormick3[72]: x[72] + u[72] - r[72] <= 1
 mccormick3[73]: x[73] + u[73] - r[73] <= 1
 mccormick3[74]: x[74] + u[74] - r[74] <= 1
 mccormick3[75]: x[75] + u[75] - r[75] <= 1
 mccormick3[76]: x[76] + u[76] - r[76] <= 1
 mccormick3[77]: x[77] + u[77] - r[77] <= 1
 mccormick3[78]: x[78] + u[78] - r[78] <= 1
 mccormick3[79]: x[79] + u[79] - r[79] <= 1
 mccormick3[80]: x[80] + u[80] - r[80] <= 1
 mccormick3[81]: x[81] + u[81] - r[81] <= 1
 mccormick3[82]: x[82] + u[82] - r[82] <= 1
 mccormick3[83]: x[83] + u[83] - r[83] <= 1
 mccormick3[84]: x[84] + u[84] - r[84] <= 1
 mccormick3[85]: x[85] + u[85] - r[85] <= 1
 mccormick3[86]: x[86] + u[86] - r[86] <= 1
 mccormick3[87]: x[87] + u[87] - r[87] <= 1
 mccormick3[88]: x[88] + u[88] - r[88] <= 1
 mccormick3[89]: x[89] + u[89] - r[89] <= 1
 mccormick3[90]: x[90] + u[90] - r[90] <= 1
 mccormick3[91]: x[91] + u[91] - r[91] <= 1
 mccormick3[92]: x[92] + u[92] - r[92] <= 1
 mccormick3[93]: x[93] + u[93] - r[93] <= 1
 mccormick3[94]: x[94] + u[94] - r[94] <= 1
 mccormick3[95]: x[95] + u[95] - r[95] <= 1
 mccormick3[96]: x[96] + u[96] - r[96] <= 1
 mccormick3[97]: x[97] + u[97] - r[97] <= 1
 mccormick3[98]: x[98] + u[98] - r[98] <= 1
 mccormick3[99]: x[99] + u[99] - r[99] <= 1
Bounds
Binaries
 x[0] x[1] x[2] x[3] x[4] x[5] x[6] x[7] x[8] x[9] x[10] x[11] x[12] x[13]
 x[14] x[15] x[16] x[17] x[18] x[19] x[20] x[21] x[22] x[23] x[24] x[25]
 x[26] x[27] x[28] x[29] x[30] x[31] x[32] x[33] x[34] x[35] x[36] x[37]
 x[38] x[39] x[40] x[41] x[42] x[43] x[44] x[45] x[46] x[47] x[48] x[49]
 x[50] x[51] x[52] x[53] x[54] x[55] x[56] x[57] x[58] x[59] x[60] x[61]
 x[62] x[63] x[64] x[65] x[66] x[67] x[68] x[69] x[70] x[71] x[72] x[73]
 x[74] x[75] x[76] x[77] x[78] x[79] x[80] x[81] x[82] x[83] x[84] x[85]
 x[86] x[87] x[88] x[89] x[90] x[91] x[92] x[93] x[94] x[95] x[96] x[97]
 x[98] x[99] u[0] u[1] u[2] u[3] u[4] u[5] u[6] u[7] u[8] u[9] u[10] u[11]
 u[12] u[13] u[14] u[15] u[16] u[17] u[18] u[19] u[20] u[21] u[22] u[23]
 u[24] u[25] u[26] u[27] u[28] u[29] u[30] u[31] u[32] u[33] u[34] u[35]
 u[36] u[37] u[38] u[39] u[40] u[41] u[42] u[43] u[44] u[45] u[46] u[47]
 u[48] u[49] u[50] u[51] u[52] u[53] u[54] u[55] u[56] u[57] u[58] u[59]
 u[60] u[61] u[62] u[63] u[64] u[65] u[66] u[67] u[68] u[69] u[70] u[71]
 u[72] u[73] u[74] u[75] u[76] u[77] u[78] u[79] u[80] u[81] u[82] u[83]
 u[84] u[85] u[86] u[87] u[88] u[89] u[90] u[91] u[92] u[93] u[94] u[95]
 u[96] u[97] u[98] u[99] r[0] r[1] r[2] r[3] r[4] r[5] r[6] r[7] r[8] r[9]
 r[10] r[11] r[12] r[13] r[14] r[15] r[16] r[17] r[18] r[19] r[20] r[21]
 r[22] r[23] r[24] r[25] r[26] r[27] r[28] r[29] r[30] r[31] r[32] r[33]
 r[34] r[35] r[36] r[37] r[38] r[39] r[40] r[41] r[42] r[43] r[44] r[45]
 r[46] r[47] r[48] r[49] r[50] r[51] r[52] r[53] r[54] r[55] r[56] r[57]
 r[58] r[59] r[60] r[61] r[62] r[63] r[64] r[65] r[66] r[67] r[68] r[69]
 r[70] r[71] r[72] r[73] r[74] r[75] r[76] r[77] r[78] r[79] r[80] r[81]
 r[82] r[83] r[84] r[85] r[86] r[87] r[88] r[89] r[90] r[91] r[92] r[93]
 r[94] r[95] r[96] r[97] r[98] r[99]
End
