instances/knapsack/discrete_knapsack_uncertainty/knapsack_100_8.kp
37534
100
477

42 4.2 92
22 2.2 29
52 5.2 98
69 6.9 42
30 3.0 76
80 8.0 11
87 8.7 80
86 8.6 14
7 0.7 29
68 6.8 81
98 9.8 1
13 1.3 21
18 1.8 5
58 5.8 96
51 5.1 9
55 5.5 14
39 3.9 84
70 7.0 28
23 2.3 77
36 3.6 64
43 4.3 16
6 0.6 33
58 5.8 78
69 6.9 10
15 1.5 67
82 8.2 97
44 4.4 46
54 5.4 14
68 6.8 100
17 1.7 95
72 7.2 31
14 1.4 38
66 6.6 38
55 5.5 1
2 0.2 34
95 9.5 19
90 9.0 75
87 8.7 93
54 5.4 13
53 5.3 34
33 3.3 42
68 6.8 64
100 10.0 88
96 9.6 1
45 4.5 69
65 6.5 25
8 0.8 39
96 9.6 99
77 7.7 67
90 9.0 100
41 4.1 17
66 6.6 41
51 5.1 61
62 6.2 67
83 8.3 66
6 0.6 32
35 3.5 77
89 8.9 82
38 3.8 6
32 3.2 73
43 4.3 98
25 2.5 56
22 2.2 92
85 8.5 4
6 0.6 5
34 3.4 39
35 3.5 55
61 6.1 96
46 4.6 27
64 6.4 68
20 2.0 51
100 10.0 69
32 3.2 23
49 4.9 88
62 6.2 53
11 1.1 64
97 9.7 4
49 4.9 63
43 4.3 54
65 6.5 94
76 7.6 5
12 1.2 80
5 0.5 68
36 3.6 48
12 1.2 83
100 10.0 3
70 7.0 24
94 9.4 9
20 2.0 82
25 2.5 65
11 1.1 52
7 0.7 28
75 7.5 76
34 3.4 43
54 5.4 34
51 5.1 9
39 3.9 31
11 1.1 82
86 8.6 35
22 2.2 27

73532
463

[3.9649139018932025 1.7379481163186663 3.914029172204186 0.8882314938873185 1.5784363498624794 3.299461095387101 3.460549129007842 1.3450490311092262 4.111319985524311 3.6138423037389433 1.8500125270445449 3.161824471846475 2.141682857474664 3.15859382585685 0.9254164246130678 4.002190493502519 2.6495019155307022 0.4882202487323637 3.7409854139836547 3.542377061420548 2.514917282326056 1.5215062116408087 1.453536339059696 4.268084133662673 3.3183821957562585 3.3754776528759916 2.7380862299077364 1.5188396827227353 1.8515224823597165 0.026439461030248416 2.61426474629473 0.026607678657856636 1.4374131682174227 2.343257187387833 2.1418755382881214 1.3874680794404872 2.4575223904751238 4.04005994726872 4.483072174566136 0.9766458666365163 0.018303095110730923 0.4260037639503925 3.507877433028384 3.746160103207614 2.413351070657557 4.298283445067169 2.9684436214567143 3.348762515530647 4.482467879504284 4.469045502495201 0.6433832947947591 1.6778518297034737 2.272031130237785 0.3085922859443311 1.5582896418583647 3.4695068683389225 1.3686087695638858 3.6471502974030297 2.7307070318044837 0.011306171192123087 3.4519121152147973 4.021860756535935 0.021871716362824728 1.0824844869430763 2.7128103009714 3.4973907904358748 0.25171396279014563 3.9601869826667615 0.15114311302181352 4.511280353356118 0.9513540153286718 0.5635150670891584 3.509630053911694 2.734523351125582 0.3835002538608968 0.638376517570893 4.014067809139949 2.082711183911971 4.318918473581471 1.843434091536928 1.6421698393830937 3.3577991917398387 2.4071135765820046 4.54108050387905 0.09547017110301348 1.9771050117266626 1.9602710817290812 1.0158026254227643 3.7634064158379106 1.7828798992454948 2.3982670814590366 3.838056424671068 3.122140613315203 0.5268216123386709 1.5844959219506802 4.5356940850184 2.5497083447043076 1.3230648769427136 3.5394788138193443 0.5688183144918169]

[5 29 19 44 61 43 26 73 66 59 85 80 61 61 50 34 22 89 30 55 70 93 17 12 26 97 79 33 39 28 31 13 65 2 9 54 41 98 33 56 56 3 7 43 24 4 15 11 64 65 48 93 6 73 34 81 50 72 57 83 62 12 37 24 77 17 62 44 25 87 27 51 31 20 61 90 68 4 26 88 87 11 88 75 3 99 21 17 83 84 66 62 14 65 85 58 58 98 25 73]
